




































































74 
71 72 
3 52 
30 53 
75 54 
47 43 
66 
49 4 
25 42 
56 18 
5 14 
22 61 
0 23 
59 50 
16 13 
35 24 
34 
28 
39 11 
64 12 
31 15 
21 45 
60 46 
58 8 
20 19 
67 37 
63 62 
40 2 
44 65 
10 73 
38 7 

9 55 
76 27 
6 
68 51 
48 1 
36 33 
70 
41 
17 69 
29 
32 
57 
26 

